NAME          PK_ROADS
ROWS
 N	TARGET
 L  MAX_VLDK_TRUD
 L  MAX_VLDK_RAZD
 L  MAX_VLDK_RUSS
 L  MAX_VLDK_SHKT
 L  MAX_USSR_RAZD
 L  MAX_USSR_NVSH
 L  MAX_USSR_LIPV
 L  MAX_NHDK_PRTZ
 L  MAX_NHDK_FOKN
 L  MAX_ARTM_TRUD
 L  MAX_ARTM_RAZD
 L  MAX_ARTM_KNEV
 L  MAX_ARTM_SHKT
 L  MAX_ARSN_SPSK
 L  MAX_ARSN_KAVL
 L  MAX_ARSN_SIBR
 L  MAX_ARSN_ANCH
 L  MAX_KAMN_FOKN
 L  MAX_KAMN_SMOL
 L  MAX_KAMN_SHDL
 L  MAX_SPSK_ARSN
 L  MAX_SPSK_KIRV
 L  MAX_SPSK_SIBR
 L  MAX_LSZV_RUZH
 L  MAX_PRTZ_NHDK
 L  MAX_PRTZ_KAZN
 L  MAX_DGRS_KAVL
 L  MAX_DGRS_SRZH
 L  MAX_DGRS_CHRM
 L  MAX_DRCH_LUCH
 L  MAX_DRCH_KAVL
 L  MAX_DRCH_NEVS
 L  MAX_FOKN_NHDK
 L  MAX_FOKN_KAMN
 L  MAX_FOKN_DUNA
 L  MAX_TRUD_VLDK
 L  MAX_TRUD_ARTM
 L  MAX_TRUD_RAZD
 L  MAX_LUCH_DRCH
 L  MAX_IVAN_NVSH
 L  MAX_IVAN_SIBR
 L  MAX_IVAN_SHKT
 L  MAX_IVAN_ANCH
 L  MAX_KAVL_ARSN
 L  MAX_KAVL_DGRS
 L  MAX_KAVL_DRCH
 L  MAX_KAVL_OLGA
 L  MAX_KAVL_HRST
 L  MAX_SLAV_BARB
 L  MAX_SLAV_SHNV
 L  MAX_POGR_LIPV
 L  MAX_YARS_SIBR
 L  MAX_YARS_GRIG
 L  MAX_KIRV_SPSK
 L  MAX_KIRV_KLCH
 L  MAX_RAZD_VLDK
 L  MAX_RAZD_USSR
 L  MAX_RAZD_ARTM
 L  MAX_RAZD_TRUD
 L  MAX_RAZD_ZNDV
 L  MAX_NVSH_USSR
 L  MAX_NVSH_IVAN
 L  MAX_NVSH_SIBR
 L  MAX_NVSH_GRIG
 L  MAX_DUNA_FOKN
 L  MAX_SIBR_ARSN
 L  MAX_SIBR_SPSK
 L  MAX_SIBR_IVAN
 L  MAX_SIBR_YARS
 L  MAX_SIBR_NVSH
 L  MAX_PRBR_LAZO
 L  MAX_LIPV_USSR
 L  MAX_LIPV_POGR
 L  MAX_LIPV_GRIG
 L  MAX_SMOL_KAMN
 L  MAX_SMOL_SHKT
 L  MAX_SMOL_KAZN
 L  MAX_KNEV_ARTM
 L  MAX_KNEV_SHKT
 L  MAX_KNEV_YASN
 L  MAX_PLAS_TERN
 L  MAX_PLAS_PRIS
 L  MAX_RUSS_VLDK
 L  MAX_SHKT_VLDK
 L  MAX_SHKT_ARTM
 L  MAX_SHKT_IVAN
 L  MAX_SHKT_SMOL
 L  MAX_SHKT_KNEV
 L  MAX_SHKT_KAZN
 L  MAX_ANCH_ARSN
 L  MAX_ANCH_IVAN
 L  MAX_ANCH_SERG
 L  MAX_KLCH_KIRV
 L  MAX_KLCH_RUZH
 L  MAX_SERG_ANCH
 L  MAX_SERG_LAZO
 L  MAX_SERG_KAZN
 L  MAX_OLGA_KAVL
 L  MAX_OLGA_LAZO
 L  MAX_OLGA_TIMF
 L  MAX_TERN_PLAS
 L  MAX_HRST_KAVL
 L  MAX_ZARB_SHNV
 L  MAX_LAZO_PRBR
 L  MAX_LAZO_SERG
 L  MAX_LAZO_OLGA
 L  MAX_KRAS_HASN
 L  MAX_KRAS_ZAYS
 L  MAX_BARB_SLAV
 L  MAX_BARB_PRIM
 L  MAX_BARB_ZNDV
 L  MAX_AVAN_KAZN
 L  MAX_PRIS_PLAS
 L  MAX_PRIS_SRZH
 L  MAX_POSE_ZAYS
 L  MAX_SRZH_DGRS
 L  MAX_SRZH_PRIS
 L  MAX_PRIM_BARB
 L  MAX_TIMF_OLGA
 L  MAX_KAZN_PRTZ
 L  MAX_KAZN_SMOL
 L  MAX_KAZN_SHKT
 L  MAX_KAZN_SERG
 L  MAX_KAZN_AVAN
 L  MAX_ZNDV_RAZD
 L  MAX_ZNDV_BARB
 L  MAX_ZNDV_BRGV
 L  MAX_GRIG_YARS
 L  MAX_GRIG_NVSH
 L  MAX_GRIG_LIPV
 L  MAX_SHNV_SLAV
 L  MAX_SHNV_ZARB
 L  MAX_SHNV_ZAYS
 L  MAX_RUZH_LSZV
 L  MAX_RUZH_KLCH
 L  MAX_RUZH_NEVS
 L  MAX_RUZH_TURG
 L  MAX_HASN_KRAS
 L  MAX_BRGV_ZNDV
 L  MAX_YASN_KNEV
 L  MAX_NEVS_DRCH
 L  MAX_NEVS_RUZH
 L  MAX_SHDL_KAMN
 L  MAX_TURG_RUZH
 L  MAX_CHRM_DGRS
 L  MAX_ZAYS_KRAS
 L  MAX_ZAYS_POSE
 L  MAX_ZAYS_SHNV
 E  INOUT_USSR
 E  INOUT_ARTM
 E  INOUT_ARSN
 E  INOUT_KAMN
 E  INOUT_SPSK
 E  INOUT_LSZV
 E  INOUT_PRTZ
 E  INOUT_DGRS
 E  INOUT_DRCH
 E  INOUT_FOKN
 E  INOUT_TRUD
 E  INOUT_LUCH
 E  INOUT_IVAN
 E  INOUT_KAVL
 E  INOUT_SLAV
 E  INOUT_POGR
 E  INOUT_YARS
 E  INOUT_KIRV
 E  INOUT_RAZD
 E  INOUT_NVSH
 E  INOUT_DUNA
 E  INOUT_SIBR
 E  INOUT_PRBR
 E  INOUT_LIPV
 E  INOUT_SMOL
 E  INOUT_KNEV
 E  INOUT_PLAS
 E  INOUT_RUSS
 E  INOUT_SHKT
 E  INOUT_ANCH
 E  INOUT_KLCH
 E  INOUT_SERG
 E  INOUT_OLGA
 E  INOUT_TERN
 E  INOUT_HRST
 E  INOUT_ZARB
 E  INOUT_LAZO
 E  INOUT_KRAS
 E  INOUT_BARB
 E  INOUT_AVAN
 E  INOUT_PRIS
 E  INOUT_POSE
 E  INOUT_SRZH
 E  INOUT_PRIM
 E  INOUT_TIMF
 E  INOUT_KAZN
 E  INOUT_ZNDV
 E  INOUT_GRIG
 E  INOUT_SHNV
 E  INOUT_RUZH
 E  INOUT_HASN
 E  INOUT_BRGV
 E  INOUT_YASN
 E  INOUT_NEVS
 E  INOUT_SHDL
 E  INOUT_TURG
 E  INOUT_CHRM
 E  INOUT_ZAYS
 E  ENDS_VLDK_NHDK
COLUMNS
	VLDK_TRUD		TARGET				-1
	VLDK_TRUD		MAX_VLDK_TRUD		1
	VLDK_TRUD		ENDS_VLDK_NHDK		-1
	VLDK_TRUD		INOUT_TRUD			1
	VLDK_RAZD		TARGET				-1
	VLDK_RAZD		MAX_VLDK_RAZD		1
	VLDK_RAZD		ENDS_VLDK_NHDK		-1
	VLDK_RAZD		INOUT_RAZD			1
	VLDK_RUSS		TARGET				-1
	VLDK_RUSS		MAX_VLDK_RUSS		1
	VLDK_RUSS		ENDS_VLDK_NHDK		-1
	VLDK_RUSS		INOUT_RUSS			1
	VLDK_SHKT		TARGET				-1
	VLDK_SHKT		MAX_VLDK_SHKT		1
	VLDK_SHKT		ENDS_VLDK_NHDK		-1
	VLDK_SHKT		INOUT_SHKT			1
	USSR_RAZD		TARGET				-1
	USSR_RAZD		MAX_USSR_RAZD		1
	USSR_RAZD		INOUT_USSR			-1
	USSR_RAZD		INOUT_RAZD			1
	USSR_NVSH		TARGET				-1
	USSR_NVSH		MAX_USSR_NVSH		1
	USSR_NVSH		INOUT_USSR			-1
	USSR_NVSH		INOUT_NVSH			1
	USSR_LIPV		TARGET				-1
	USSR_LIPV		MAX_USSR_LIPV		1
	USSR_LIPV		INOUT_USSR			-1
	USSR_LIPV		INOUT_LIPV			1
	NHDK_PRTZ		TARGET				-1
	NHDK_PRTZ		MAX_NHDK_PRTZ		1
	NHDK_FOKN		TARGET				-1
	NHDK_FOKN		MAX_NHDK_FOKN		1
	ARTM_TRUD		TARGET				-1
	ARTM_TRUD		MAX_ARTM_TRUD		1
	ARTM_TRUD		INOUT_ARTM			-1
	ARTM_TRUD		INOUT_TRUD			1
	ARTM_RAZD		TARGET				-1
	ARTM_RAZD		MAX_ARTM_RAZD		1
	ARTM_RAZD		INOUT_ARTM			-1
	ARTM_RAZD		INOUT_RAZD			1
	ARTM_KNEV		TARGET				-1
	ARTM_KNEV		MAX_ARTM_KNEV		1
	ARTM_KNEV		INOUT_ARTM			-1
	ARTM_KNEV		INOUT_KNEV			1
	ARTM_SHKT		TARGET				-1
	ARTM_SHKT		MAX_ARTM_SHKT		1
	ARTM_SHKT		INOUT_ARTM			-1
	ARTM_SHKT		INOUT_SHKT			1
	ARSN_SPSK		TARGET				-1
	ARSN_SPSK		MAX_ARSN_SPSK		1
	ARSN_SPSK		INOUT_ARSN			-1
	ARSN_SPSK		INOUT_SPSK			1
	ARSN_KAVL		TARGET				-1
	ARSN_KAVL		MAX_ARSN_KAVL		1
	ARSN_KAVL		INOUT_ARSN			-1
	ARSN_KAVL		INOUT_KAVL			1
	ARSN_SIBR		TARGET				-1
	ARSN_SIBR		MAX_ARSN_SIBR		1
	ARSN_SIBR		INOUT_ARSN			-1
	ARSN_SIBR		INOUT_SIBR			1
	ARSN_ANCH		TARGET				-1
	ARSN_ANCH		MAX_ARSN_ANCH		1
	ARSN_ANCH		INOUT_ARSN			-1
	ARSN_ANCH		INOUT_ANCH			1
	KAMN_FOKN		TARGET				-1
	KAMN_FOKN		MAX_KAMN_FOKN		1
	KAMN_FOKN		INOUT_KAMN			-1
	KAMN_FOKN		INOUT_FOKN			1
	KAMN_SMOL		TARGET				-1
	KAMN_SMOL		MAX_KAMN_SMOL		1
	KAMN_SMOL		INOUT_KAMN			-1
	KAMN_SMOL		INOUT_SMOL			1
	KAMN_SHDL		TARGET				-1
	KAMN_SHDL		MAX_KAMN_SHDL		1
	KAMN_SHDL		INOUT_KAMN			-1
	KAMN_SHDL		INOUT_SHDL			1
	SPSK_ARSN		TARGET				-1
	SPSK_ARSN		MAX_SPSK_ARSN		1
	SPSK_ARSN		INOUT_SPSK			-1
	SPSK_ARSN		INOUT_ARSN			1
	SPSK_KIRV		TARGET				-1
	SPSK_KIRV		MAX_SPSK_KIRV		1
	SPSK_KIRV		INOUT_SPSK			-1
	SPSK_KIRV		INOUT_KIRV			1
	SPSK_SIBR		TARGET				-1
	SPSK_SIBR		MAX_SPSK_SIBR		1
	SPSK_SIBR		INOUT_SPSK			-1
	SPSK_SIBR		INOUT_SIBR			1
	LSZV_RUZH		TARGET				-1
	LSZV_RUZH		MAX_LSZV_RUZH		1
	LSZV_RUZH		INOUT_LSZV			-1
	LSZV_RUZH		INOUT_RUZH			1
	PRTZ_NHDK		TARGET				-1
	PRTZ_NHDK		MAX_PRTZ_NHDK		1
	PRTZ_NHDK		INOUT_PRTZ			-1
	PRTZ_NHDK		ENDS_VLDK_NHDK		1
	PRTZ_KAZN		TARGET				-1
	PRTZ_KAZN		MAX_PRTZ_KAZN		1
	PRTZ_KAZN		INOUT_PRTZ			-1
	PRTZ_KAZN		INOUT_KAZN			1
	DGRS_KAVL		TARGET				-1
	DGRS_KAVL		MAX_DGRS_KAVL		1
	DGRS_KAVL		INOUT_DGRS			-1
	DGRS_KAVL		INOUT_KAVL			1
	DGRS_SRZH		TARGET				-1
	DGRS_SRZH		MAX_DGRS_SRZH		1
	DGRS_SRZH		INOUT_DGRS			-1
	DGRS_SRZH		INOUT_SRZH			1
	DGRS_CHRM		TARGET				-1
	DGRS_CHRM		MAX_DGRS_CHRM		1
	DGRS_CHRM		INOUT_DGRS			-1
	DGRS_CHRM		INOUT_CHRM			1
	DRCH_LUCH		TARGET				-1
	DRCH_LUCH		MAX_DRCH_LUCH		1
	DRCH_LUCH		INOUT_DRCH			-1
	DRCH_LUCH		INOUT_LUCH			1
	DRCH_KAVL		TARGET				-1
	DRCH_KAVL		MAX_DRCH_KAVL		1
	DRCH_KAVL		INOUT_DRCH			-1
	DRCH_KAVL		INOUT_KAVL			1
	DRCH_NEVS		TARGET				-1
	DRCH_NEVS		MAX_DRCH_NEVS		1
	DRCH_NEVS		INOUT_DRCH			-1
	DRCH_NEVS		INOUT_NEVS			1
	FOKN_NHDK		TARGET				-1
	FOKN_NHDK		MAX_FOKN_NHDK		1
	FOKN_NHDK		INOUT_FOKN			-1
	FOKN_NHDK		ENDS_VLDK_NHDK		1
	FOKN_KAMN		TARGET				-1
	FOKN_KAMN		MAX_FOKN_KAMN		1
	FOKN_KAMN		INOUT_FOKN			-1
	FOKN_KAMN		INOUT_KAMN			1
	FOKN_DUNA		TARGET				-1
	FOKN_DUNA		MAX_FOKN_DUNA		1
	FOKN_DUNA		INOUT_FOKN			-1
	FOKN_DUNA		INOUT_DUNA			1
	TRUD_VLDK		TARGET				-1
	TRUD_VLDK		MAX_TRUD_VLDK		1
	TRUD_ARTM		TARGET				-1
	TRUD_ARTM		MAX_TRUD_ARTM		1
	TRUD_ARTM		INOUT_TRUD			-1
	TRUD_ARTM		INOUT_ARTM			1
	TRUD_RAZD		TARGET				-1
	TRUD_RAZD		MAX_TRUD_RAZD		1
	TRUD_RAZD		INOUT_TRUD			-1
	TRUD_RAZD		INOUT_RAZD			1
	LUCH_DRCH		TARGET				-1
	LUCH_DRCH		MAX_LUCH_DRCH		1
	LUCH_DRCH		INOUT_LUCH			-1
	LUCH_DRCH		INOUT_DRCH			1
	IVAN_NVSH		TARGET				-1
	IVAN_NVSH		MAX_IVAN_NVSH		1
	IVAN_NVSH		INOUT_IVAN			-1
	IVAN_NVSH		INOUT_NVSH			1
	IVAN_SIBR		TARGET				-1
	IVAN_SIBR		MAX_IVAN_SIBR		1
	IVAN_SIBR		INOUT_IVAN			-1
	IVAN_SIBR		INOUT_SIBR			1
	IVAN_SHKT		TARGET				-1
	IVAN_SHKT		MAX_IVAN_SHKT		1
	IVAN_SHKT		INOUT_IVAN			-1
	IVAN_SHKT		INOUT_SHKT			1
	IVAN_ANCH		TARGET				-1
	IVAN_ANCH		MAX_IVAN_ANCH		1
	IVAN_ANCH		INOUT_IVAN			-1
	IVAN_ANCH		INOUT_ANCH			1
	KAVL_ARSN		TARGET				-1
	KAVL_ARSN		MAX_KAVL_ARSN		1
	KAVL_ARSN		INOUT_KAVL			-1
	KAVL_ARSN		INOUT_ARSN			1
	KAVL_DGRS		TARGET				-1
	KAVL_DGRS		MAX_KAVL_DGRS		1
	KAVL_DGRS		INOUT_KAVL			-1
	KAVL_DGRS		INOUT_DGRS			1
	KAVL_DRCH		TARGET				-1
	KAVL_DRCH		MAX_KAVL_DRCH		1
	KAVL_DRCH		INOUT_KAVL			-1
	KAVL_DRCH		INOUT_DRCH			1
	KAVL_OLGA		TARGET				-1
	KAVL_OLGA		MAX_KAVL_OLGA		1
	KAVL_OLGA		INOUT_KAVL			-1
	KAVL_OLGA		INOUT_OLGA			1
	KAVL_HRST		TARGET				-1
	KAVL_HRST		MAX_KAVL_HRST		1
	KAVL_HRST		INOUT_KAVL			-1
	KAVL_HRST		INOUT_HRST			1
	SLAV_BARB		TARGET				-1
	SLAV_BARB		MAX_SLAV_BARB		1
	SLAV_BARB		INOUT_SLAV			-1
	SLAV_BARB		INOUT_BARB			1
	SLAV_SHNV		TARGET				-1
	SLAV_SHNV		MAX_SLAV_SHNV		1
	SLAV_SHNV		INOUT_SLAV			-1
	SLAV_SHNV		INOUT_SHNV			1
	POGR_LIPV		TARGET				-1
	POGR_LIPV		MAX_POGR_LIPV		1
	POGR_LIPV		INOUT_POGR			-1
	POGR_LIPV		INOUT_LIPV			1
	YARS_SIBR		TARGET				-1
	YARS_SIBR		MAX_YARS_SIBR		1
	YARS_SIBR		INOUT_YARS			-1
	YARS_SIBR		INOUT_SIBR			1
	YARS_GRIG		TARGET				-1
	YARS_GRIG		MAX_YARS_GRIG		1
	YARS_GRIG		INOUT_YARS			-1
	YARS_GRIG		INOUT_GRIG			1
	KIRV_SPSK		TARGET				-1
	KIRV_SPSK		MAX_KIRV_SPSK		1
	KIRV_SPSK		INOUT_KIRV			-1
	KIRV_SPSK		INOUT_SPSK			1
	KIRV_KLCH		TARGET				-1
	KIRV_KLCH		MAX_KIRV_KLCH		1
	KIRV_KLCH		INOUT_KIRV			-1
	KIRV_KLCH		INOUT_KLCH			1
	RAZD_VLDK		TARGET				-1
	RAZD_VLDK		MAX_RAZD_VLDK		1
	RAZD_USSR		TARGET				-1
	RAZD_USSR		MAX_RAZD_USSR		1
	RAZD_USSR		INOUT_RAZD			-1
	RAZD_USSR		INOUT_USSR			1
	RAZD_ARTM		TARGET				-1
	RAZD_ARTM		MAX_RAZD_ARTM		1
	RAZD_ARTM		INOUT_RAZD			-1
	RAZD_ARTM		INOUT_ARTM			1
	RAZD_TRUD		TARGET				-1
	RAZD_TRUD		MAX_RAZD_TRUD		1
	RAZD_TRUD		INOUT_RAZD			-1
	RAZD_TRUD		INOUT_TRUD			1
	RAZD_ZNDV		TARGET				-1
	RAZD_ZNDV		MAX_RAZD_ZNDV		1
	RAZD_ZNDV		INOUT_RAZD			-1
	RAZD_ZNDV		INOUT_ZNDV			1
	NVSH_USSR		TARGET				-1
	NVSH_USSR		MAX_NVSH_USSR		1
	NVSH_USSR		INOUT_NVSH			-1
	NVSH_USSR		INOUT_USSR			1
	NVSH_IVAN		TARGET				-1
	NVSH_IVAN		MAX_NVSH_IVAN		1
	NVSH_IVAN		INOUT_NVSH			-1
	NVSH_IVAN		INOUT_IVAN			1
	NVSH_SIBR		TARGET				-1
	NVSH_SIBR		MAX_NVSH_SIBR		1
	NVSH_SIBR		INOUT_NVSH			-1
	NVSH_SIBR		INOUT_SIBR			1
	NVSH_GRIG		TARGET				-1
	NVSH_GRIG		MAX_NVSH_GRIG		1
	NVSH_GRIG		INOUT_NVSH			-1
	NVSH_GRIG		INOUT_GRIG			1
	DUNA_FOKN		TARGET				-1
	DUNA_FOKN		MAX_DUNA_FOKN		1
	DUNA_FOKN		INOUT_DUNA			-1
	DUNA_FOKN		INOUT_FOKN			1
	SIBR_ARSN		TARGET				-1
	SIBR_ARSN		MAX_SIBR_ARSN		1
	SIBR_ARSN		INOUT_SIBR			-1
	SIBR_ARSN		INOUT_ARSN			1
	SIBR_SPSK		TARGET				-1
	SIBR_SPSK		MAX_SIBR_SPSK		1
	SIBR_SPSK		INOUT_SIBR			-1
	SIBR_SPSK		INOUT_SPSK			1
	SIBR_IVAN		TARGET				-1
	SIBR_IVAN		MAX_SIBR_IVAN		1
	SIBR_IVAN		INOUT_SIBR			-1
	SIBR_IVAN		INOUT_IVAN			1
	SIBR_YARS		TARGET				-1
	SIBR_YARS		MAX_SIBR_YARS		1
	SIBR_YARS		INOUT_SIBR			-1
	SIBR_YARS		INOUT_YARS			1
	SIBR_NVSH		TARGET				-1
	SIBR_NVSH		MAX_SIBR_NVSH		1
	SIBR_NVSH		INOUT_SIBR			-1
	SIBR_NVSH		INOUT_NVSH			1
	PRBR_LAZO		TARGET				-1
	PRBR_LAZO		MAX_PRBR_LAZO		1
	PRBR_LAZO		INOUT_PRBR			-1
	PRBR_LAZO		INOUT_LAZO			1
	LIPV_USSR		TARGET				-1
	LIPV_USSR		MAX_LIPV_USSR		1
	LIPV_USSR		INOUT_LIPV			-1
	LIPV_USSR		INOUT_USSR			1
	LIPV_POGR		TARGET				-1
	LIPV_POGR		MAX_LIPV_POGR		1
	LIPV_POGR		INOUT_LIPV			-1
	LIPV_POGR		INOUT_POGR			1
	LIPV_GRIG		TARGET				-1
	LIPV_GRIG		MAX_LIPV_GRIG		1
	LIPV_GRIG		INOUT_LIPV			-1
	LIPV_GRIG		INOUT_GRIG			1
	SMOL_KAMN		TARGET				-1
	SMOL_KAMN		MAX_SMOL_KAMN		1
	SMOL_KAMN		INOUT_SMOL			-1
	SMOL_KAMN		INOUT_KAMN			1
	SMOL_SHKT		TARGET				-1
	SMOL_SHKT		MAX_SMOL_SHKT		1
	SMOL_SHKT		INOUT_SMOL			-1
	SMOL_SHKT		INOUT_SHKT			1
	SMOL_KAZN		TARGET				-1
	SMOL_KAZN		MAX_SMOL_KAZN		1
	SMOL_KAZN		INOUT_SMOL			-1
	SMOL_KAZN		INOUT_KAZN			1
	KNEV_ARTM		TARGET				-1
	KNEV_ARTM		MAX_KNEV_ARTM		1
	KNEV_ARTM		INOUT_KNEV			-1
	KNEV_ARTM		INOUT_ARTM			1
	KNEV_SHKT		TARGET				-1
	KNEV_SHKT		MAX_KNEV_SHKT		1
	KNEV_SHKT		INOUT_KNEV			-1
	KNEV_SHKT		INOUT_SHKT			1
	KNEV_YASN		TARGET				-1
	KNEV_YASN		MAX_KNEV_YASN		1
	KNEV_YASN		INOUT_KNEV			-1
	KNEV_YASN		INOUT_YASN			1
	PLAS_TERN		TARGET				-1
	PLAS_TERN		MAX_PLAS_TERN		1
	PLAS_TERN		INOUT_PLAS			-1
	PLAS_TERN		INOUT_TERN			1
	PLAS_PRIS		TARGET				-1
	PLAS_PRIS		MAX_PLAS_PRIS		1
	PLAS_PRIS		INOUT_PLAS			-1
	PLAS_PRIS		INOUT_PRIS			1
	RUSS_VLDK		TARGET				-1
	RUSS_VLDK		MAX_RUSS_VLDK		1
	SHKT_VLDK		TARGET				-1
	SHKT_VLDK		MAX_SHKT_VLDK		1
	SHKT_ARTM		TARGET				-1
	SHKT_ARTM		MAX_SHKT_ARTM		1
	SHKT_ARTM		INOUT_SHKT			-1
	SHKT_ARTM		INOUT_ARTM			1
	SHKT_IVAN		TARGET				-1
	SHKT_IVAN		MAX_SHKT_IVAN		1
	SHKT_IVAN		INOUT_SHKT			-1
	SHKT_IVAN		INOUT_IVAN			1
	SHKT_SMOL		TARGET				-1
	SHKT_SMOL		MAX_SHKT_SMOL		1
	SHKT_SMOL		INOUT_SHKT			-1
	SHKT_SMOL		INOUT_SMOL			1
	SHKT_KNEV		TARGET				-1
	SHKT_KNEV		MAX_SHKT_KNEV		1
	SHKT_KNEV		INOUT_SHKT			-1
	SHKT_KNEV		INOUT_KNEV			1
	SHKT_KAZN		TARGET				-1
	SHKT_KAZN		MAX_SHKT_KAZN		1
	SHKT_KAZN		INOUT_SHKT			-1
	SHKT_KAZN		INOUT_KAZN			1
	ANCH_ARSN		TARGET				-1
	ANCH_ARSN		MAX_ANCH_ARSN		1
	ANCH_ARSN		INOUT_ANCH			-1
	ANCH_ARSN		INOUT_ARSN			1
	ANCH_IVAN		TARGET				-1
	ANCH_IVAN		MAX_ANCH_IVAN		1
	ANCH_IVAN		INOUT_ANCH			-1
	ANCH_IVAN		INOUT_IVAN			1
	ANCH_SERG		TARGET				-1
	ANCH_SERG		MAX_ANCH_SERG		1
	ANCH_SERG		INOUT_ANCH			-1
	ANCH_SERG		INOUT_SERG			1
	KLCH_KIRV		TARGET				-1
	KLCH_KIRV		MAX_KLCH_KIRV		1
	KLCH_KIRV		INOUT_KLCH			-1
	KLCH_KIRV		INOUT_KIRV			1
	KLCH_RUZH		TARGET				-1
	KLCH_RUZH		MAX_KLCH_RUZH		1
	KLCH_RUZH		INOUT_KLCH			-1
	KLCH_RUZH		INOUT_RUZH			1
	SERG_ANCH		TARGET				-1
	SERG_ANCH		MAX_SERG_ANCH		1
	SERG_ANCH		INOUT_SERG			-1
	SERG_ANCH		INOUT_ANCH			1
	SERG_LAZO		TARGET				-1
	SERG_LAZO		MAX_SERG_LAZO		1
	SERG_LAZO		INOUT_SERG			-1
	SERG_LAZO		INOUT_LAZO			1
	SERG_KAZN		TARGET				-1
	SERG_KAZN		MAX_SERG_KAZN		1
	SERG_KAZN		INOUT_SERG			-1
	SERG_KAZN		INOUT_KAZN			1
	OLGA_KAVL		TARGET				-1
	OLGA_KAVL		MAX_OLGA_KAVL		1
	OLGA_KAVL		INOUT_OLGA			-1
	OLGA_KAVL		INOUT_KAVL			1
	OLGA_LAZO		TARGET				-1
	OLGA_LAZO		MAX_OLGA_LAZO		1
	OLGA_LAZO		INOUT_OLGA			-1
	OLGA_LAZO		INOUT_LAZO			1
	OLGA_TIMF		TARGET				-1
	OLGA_TIMF		MAX_OLGA_TIMF		1
	OLGA_TIMF		INOUT_OLGA			-1
	OLGA_TIMF		INOUT_TIMF			1
	TERN_PLAS		TARGET				-1
	TERN_PLAS		MAX_TERN_PLAS		1
	TERN_PLAS		INOUT_TERN			-1
	TERN_PLAS		INOUT_PLAS			1
	HRST_KAVL		TARGET				-1
	HRST_KAVL		MAX_HRST_KAVL		1
	HRST_KAVL		INOUT_HRST			-1
	HRST_KAVL		INOUT_KAVL			1
	ZARB_SHNV		TARGET				-1
	ZARB_SHNV		MAX_ZARB_SHNV		1
	ZARB_SHNV		INOUT_ZARB			-1
	ZARB_SHNV		INOUT_SHNV			1
	LAZO_PRBR		TARGET				-1
	LAZO_PRBR		MAX_LAZO_PRBR		1
	LAZO_PRBR		INOUT_LAZO			-1
	LAZO_PRBR		INOUT_PRBR			1
	LAZO_SERG		TARGET				-1
	LAZO_SERG		MAX_LAZO_SERG		1
	LAZO_SERG		INOUT_LAZO			-1
	LAZO_SERG		INOUT_SERG			1
	LAZO_OLGA		TARGET				-1
	LAZO_OLGA		MAX_LAZO_OLGA		1
	LAZO_OLGA		INOUT_LAZO			-1
	LAZO_OLGA		INOUT_OLGA			1
	KRAS_HASN		TARGET				-1
	KRAS_HASN		MAX_KRAS_HASN		1
	KRAS_HASN		INOUT_KRAS			-1
	KRAS_HASN		INOUT_HASN			1
	KRAS_ZAYS		TARGET				-1
	KRAS_ZAYS		MAX_KRAS_ZAYS		1
	KRAS_ZAYS		INOUT_KRAS			-1
	KRAS_ZAYS		INOUT_ZAYS			1
	BARB_SLAV		TARGET				-1
	BARB_SLAV		MAX_BARB_SLAV		1
	BARB_SLAV		INOUT_BARB			-1
	BARB_SLAV		INOUT_SLAV			1
	BARB_PRIM		TARGET				-1
	BARB_PRIM		MAX_BARB_PRIM		1
	BARB_PRIM		INOUT_BARB			-1
	BARB_PRIM		INOUT_PRIM			1
	BARB_ZNDV		TARGET				-1
	BARB_ZNDV		MAX_BARB_ZNDV		1
	BARB_ZNDV		INOUT_BARB			-1
	BARB_ZNDV		INOUT_ZNDV			1
	AVAN_KAZN		TARGET				-1
	AVAN_KAZN		MAX_AVAN_KAZN		1
	AVAN_KAZN		INOUT_AVAN			-1
	AVAN_KAZN		INOUT_KAZN			1
	PRIS_PLAS		TARGET				-1
	PRIS_PLAS		MAX_PRIS_PLAS		1
	PRIS_PLAS		INOUT_PRIS			-1
	PRIS_PLAS		INOUT_PLAS			1
	PRIS_SRZH		TARGET				-1
	PRIS_SRZH		MAX_PRIS_SRZH		1
	PRIS_SRZH		INOUT_PRIS			-1
	PRIS_SRZH		INOUT_SRZH			1
	POSE_ZAYS		TARGET				-1
	POSE_ZAYS		MAX_POSE_ZAYS		1
	POSE_ZAYS		INOUT_POSE			-1
	POSE_ZAYS		INOUT_ZAYS			1
	SRZH_DGRS		TARGET				-1
	SRZH_DGRS		MAX_SRZH_DGRS		1
	SRZH_DGRS		INOUT_SRZH			-1
	SRZH_DGRS		INOUT_DGRS			1
	SRZH_PRIS		TARGET				-1
	SRZH_PRIS		MAX_SRZH_PRIS		1
	SRZH_PRIS		INOUT_SRZH			-1
	SRZH_PRIS		INOUT_PRIS			1
	PRIM_BARB		TARGET				-1
	PRIM_BARB		MAX_PRIM_BARB		1
	PRIM_BARB		INOUT_PRIM			-1
	PRIM_BARB		INOUT_BARB			1
	TIMF_OLGA		TARGET				-1
	TIMF_OLGA		MAX_TIMF_OLGA		1
	TIMF_OLGA		INOUT_TIMF			-1
	TIMF_OLGA		INOUT_OLGA			1
	KAZN_PRTZ		TARGET				-1
	KAZN_PRTZ		MAX_KAZN_PRTZ		1
	KAZN_PRTZ		INOUT_KAZN			-1
	KAZN_PRTZ		INOUT_PRTZ			1
	KAZN_SMOL		TARGET				-1
	KAZN_SMOL		MAX_KAZN_SMOL		1
	KAZN_SMOL		INOUT_KAZN			-1
	KAZN_SMOL		INOUT_SMOL			1
	KAZN_SHKT		TARGET				-1
	KAZN_SHKT		MAX_KAZN_SHKT		1
	KAZN_SHKT		INOUT_KAZN			-1
	KAZN_SHKT		INOUT_SHKT			1
	KAZN_SERG		TARGET				-1
	KAZN_SERG		MAX_KAZN_SERG		1
	KAZN_SERG		INOUT_KAZN			-1
	KAZN_SERG		INOUT_SERG			1
	KAZN_AVAN		TARGET				-1
	KAZN_AVAN		MAX_KAZN_AVAN		1
	KAZN_AVAN		INOUT_KAZN			-1
	KAZN_AVAN		INOUT_AVAN			1
	ZNDV_RAZD		TARGET				-1
	ZNDV_RAZD		MAX_ZNDV_RAZD		1
	ZNDV_RAZD		INOUT_ZNDV			-1
	ZNDV_RAZD		INOUT_RAZD			1
	ZNDV_BARB		TARGET				-1
	ZNDV_BARB		MAX_ZNDV_BARB		1
	ZNDV_BARB		INOUT_ZNDV			-1
	ZNDV_BARB		INOUT_BARB			1
	ZNDV_BRGV		TARGET				-1
	ZNDV_BRGV		MAX_ZNDV_BRGV		1
	ZNDV_BRGV		INOUT_ZNDV			-1
	ZNDV_BRGV		INOUT_BRGV			1
	GRIG_YARS		TARGET				-1
	GRIG_YARS		MAX_GRIG_YARS		1
	GRIG_YARS		INOUT_GRIG			-1
	GRIG_YARS		INOUT_YARS			1
	GRIG_NVSH		TARGET				-1
	GRIG_NVSH		MAX_GRIG_NVSH		1
	GRIG_NVSH		INOUT_GRIG			-1
	GRIG_NVSH		INOUT_NVSH			1
	GRIG_LIPV		TARGET				-1
	GRIG_LIPV		MAX_GRIG_LIPV		1
	GRIG_LIPV		INOUT_GRIG			-1
	GRIG_LIPV		INOUT_LIPV			1
	SHNV_SLAV		TARGET				-1
	SHNV_SLAV		MAX_SHNV_SLAV		1
	SHNV_SLAV		INOUT_SHNV			-1
	SHNV_SLAV		INOUT_SLAV			1
	SHNV_ZARB		TARGET				-1
	SHNV_ZARB		MAX_SHNV_ZARB		1
	SHNV_ZARB		INOUT_SHNV			-1
	SHNV_ZARB		INOUT_ZARB			1
	SHNV_ZAYS		TARGET				-1
	SHNV_ZAYS		MAX_SHNV_ZAYS		1
	SHNV_ZAYS		INOUT_SHNV			-1
	SHNV_ZAYS		INOUT_ZAYS			1
	RUZH_LSZV		TARGET				-1
	RUZH_LSZV		MAX_RUZH_LSZV		1
	RUZH_LSZV		INOUT_RUZH			-1
	RUZH_LSZV		INOUT_LSZV			1
	RUZH_KLCH		TARGET				-1
	RUZH_KLCH		MAX_RUZH_KLCH		1
	RUZH_KLCH		INOUT_RUZH			-1
	RUZH_KLCH		INOUT_KLCH			1
	RUZH_NEVS		TARGET				-1
	RUZH_NEVS		MAX_RUZH_NEVS		1
	RUZH_NEVS		INOUT_RUZH			-1
	RUZH_NEVS		INOUT_NEVS			1
	RUZH_TURG		TARGET				-1
	RUZH_TURG		MAX_RUZH_TURG		1
	RUZH_TURG		INOUT_RUZH			-1
	RUZH_TURG		INOUT_TURG			1
	HASN_KRAS		TARGET				-1
	HASN_KRAS		MAX_HASN_KRAS		1
	HASN_KRAS		INOUT_HASN			-1
	HASN_KRAS		INOUT_KRAS			1
	BRGV_ZNDV		TARGET				-1
	BRGV_ZNDV		MAX_BRGV_ZNDV		1
	BRGV_ZNDV		INOUT_BRGV			-1
	BRGV_ZNDV		INOUT_ZNDV			1
	YASN_KNEV		TARGET				-1
	YASN_KNEV		MAX_YASN_KNEV		1
	YASN_KNEV		INOUT_YASN			-1
	YASN_KNEV		INOUT_KNEV			1
	NEVS_DRCH		TARGET				-1
	NEVS_DRCH		MAX_NEVS_DRCH		1
	NEVS_DRCH		INOUT_NEVS			-1
	NEVS_DRCH		INOUT_DRCH			1
	NEVS_RUZH		TARGET				-1
	NEVS_RUZH		MAX_NEVS_RUZH		1
	NEVS_RUZH		INOUT_NEVS			-1
	NEVS_RUZH		INOUT_RUZH			1
	SHDL_KAMN		TARGET				-1
	SHDL_KAMN		MAX_SHDL_KAMN		1
	SHDL_KAMN		INOUT_SHDL			-1
	SHDL_KAMN		INOUT_KAMN			1
	TURG_RUZH		TARGET				-1
	TURG_RUZH		MAX_TURG_RUZH		1
	TURG_RUZH		INOUT_TURG			-1
	TURG_RUZH		INOUT_RUZH			1
	CHRM_DGRS		TARGET				-1
	CHRM_DGRS		MAX_CHRM_DGRS		1
	CHRM_DGRS		INOUT_CHRM			-1
	CHRM_DGRS		INOUT_DGRS			1
	ZAYS_KRAS		TARGET				-1
	ZAYS_KRAS		MAX_ZAYS_KRAS		1
	ZAYS_KRAS		INOUT_ZAYS			-1
	ZAYS_KRAS		INOUT_KRAS			1
	ZAYS_POSE		TARGET				-1
	ZAYS_POSE		MAX_ZAYS_POSE		1
	ZAYS_POSE		INOUT_ZAYS			-1
	ZAYS_POSE		INOUT_POSE			1
	ZAYS_SHNV		TARGET				-1
	ZAYS_SHNV		MAX_ZAYS_SHNV		1
	ZAYS_SHNV		INOUT_ZAYS			-1
	ZAYS_SHNV		INOUT_SHNV			1
RHS
	MAX		MAX_VLDK_TRUD		13950
	MAX		MAX_VLDK_RAZD		28350
	MAX		MAX_VLDK_RUSS		15300
	MAX		MAX_VLDK_SHKT		32400
	MAX		MAX_USSR_RAZD		16200
	MAX		MAX_USSR_NVSH		17100
	MAX		MAX_USSR_LIPV		25200
	MAX		MAX_NHDK_PRTZ		23850
	MAX		MAX_NHDK_FOKN		25200
	MAX		MAX_ARTM_TRUD		5850
	MAX		MAX_ARTM_RAZD		19800
	MAX		MAX_ARTM_KNEV		3150
	MAX		MAX_ARTM_SHKT		12600
	MAX		MAX_ARSN_SPSK		48600
	MAX		MAX_ARSN_KAVL		85050
	MAX		MAX_ARSN_SIBR		43200
	MAX		MAX_ARSN_ANCH		14400
	MAX		MAX_KAMN_FOKN		10350
	MAX		MAX_KAMN_SMOL		13950
	MAX		MAX_KAMN_SHDL		4050
	MAX		MAX_SPSK_ARSN		48600
	MAX		MAX_SPSK_KIRV		36900
	MAX		MAX_SPSK_SIBR		27000
	MAX		MAX_LSZV_RUZH		9000
	MAX		MAX_PRTZ_NHDK		23850
	MAX		MAX_PRTZ_KAZN		5400
	MAX		MAX_DGRS_KAVL		28800
	MAX		MAX_DGRS_SRZH		12150
	MAX		MAX_DGRS_CHRM		14400
	MAX		MAX_DRCH_LUCH		24300
	MAX		MAX_DRCH_KAVL		93900
	MAX		MAX_DRCH_NEVS		8100
	MAX		MAX_FOKN_NHDK		25200
	MAX		MAX_FOKN_KAMN		10350
	MAX		MAX_FOKN_DUNA		6300
	MAX		MAX_TRUD_VLDK		13950
	MAX		MAX_TRUD_ARTM		5850
	MAX		MAX_TRUD_RAZD		13200
	MAX		MAX_LUCH_DRCH		24300
	MAX		MAX_IVAN_NVSH		10500
	MAX		MAX_IVAN_SIBR		9900
	MAX		MAX_IVAN_SHKT		28500
	MAX		MAX_IVAN_ANCH		15300
	MAX		MAX_KAVL_ARSN		85050
	MAX		MAX_KAVL_DGRS		28800
	MAX		MAX_KAVL_DRCH		93900
	MAX		MAX_KAVL_OLGA		25500
	MAX		MAX_KAVL_HRST		3900
	MAX		MAX_SLAV_BARB		14100
	MAX		MAX_SLAV_SHNV		10500
	MAX		MAX_POGR_LIPV		14700
	MAX		MAX_YARS_SIBR		7800
	MAX		MAX_YARS_GRIG		6600
	MAX		MAX_KIRV_SPSK		36900
	MAX		MAX_KIRV_KLCH		5400
	MAX		MAX_RAZD_VLDK		28350
	MAX		MAX_RAZD_USSR		16200
	MAX		MAX_RAZD_ARTM		19800
	MAX		MAX_RAZD_TRUD		13200
	MAX		MAX_RAZD_ZNDV		15000
	MAX		MAX_NVSH_USSR		17100
	MAX		MAX_NVSH_IVAN		10500
	MAX		MAX_NVSH_SIBR		14400
	MAX		MAX_NVSH_GRIG		9300
	MAX		MAX_DUNA_FOKN		6300
	MAX		MAX_SIBR_ARSN		43200
	MAX		MAX_SIBR_SPSK		27000
	MAX		MAX_SIBR_IVAN		9900
	MAX		MAX_SIBR_YARS		7800
	MAX		MAX_SIBR_NVSH		14400
	MAX		MAX_PRBR_LAZO		24900
	MAX		MAX_LIPV_USSR		25200
	MAX		MAX_LIPV_POGR		14700
	MAX		MAX_LIPV_GRIG		9600
	MAX		MAX_SMOL_KAMN		13950
	MAX		MAX_SMOL_SHKT		3300
	MAX		MAX_SMOL_KAZN		25800
	MAX		MAX_KNEV_ARTM		3150
	MAX		MAX_KNEV_SHKT		8100
	MAX		MAX_KNEV_YASN		3000
	MAX		MAX_PLAS_TERN		18600
	MAX		MAX_PLAS_PRIS		23400
	MAX		MAX_RUSS_VLDK		15300
	MAX		MAX_SHKT_VLDK		32400
	MAX		MAX_SHKT_ARTM		12600
	MAX		MAX_SHKT_IVAN		28500
	MAX		MAX_SHKT_SMOL		3300
	MAX		MAX_SHKT_KNEV		8100
	MAX		MAX_SHKT_KAZN		26400
	MAX		MAX_ANCH_ARSN		14400
	MAX		MAX_ANCH_IVAN		15300
	MAX		MAX_ANCH_SERG		34500
	MAX		MAX_KLCH_KIRV		5400
	MAX		MAX_KLCH_RUZH		10800
	MAX		MAX_SERG_ANCH		34500
	MAX		MAX_SERG_LAZO		19500
	MAX		MAX_SERG_KAZN		7500
	MAX		MAX_OLGA_KAVL		25500
	MAX		MAX_OLGA_LAZO		57900
	MAX		MAX_OLGA_TIMF		7800
	MAX		MAX_TERN_PLAS		18600
	MAX		MAX_HRST_KAVL		3900
	MAX		MAX_ZARB_SHNV		4200
	MAX		MAX_LAZO_PRBR		24900
	MAX		MAX_LAZO_SERG		19500
	MAX		MAX_LAZO_OLGA		57900
	MAX		MAX_KRAS_HASN		14100
	MAX		MAX_KRAS_ZAYS		2100
	MAX		MAX_BARB_SLAV		14100
	MAX		MAX_BARB_PRIM		5100
	MAX		MAX_BARB_ZNDV		5700
	MAX		MAX_AVAN_KAZN		3600
	MAX		MAX_PRIS_PLAS		23400
	MAX		MAX_PRIS_SRZH		3600
	MAX		MAX_POSE_ZAYS		3000
	MAX		MAX_SRZH_DGRS		12150
	MAX		MAX_SRZH_PRIS		3600
	MAX		MAX_PRIM_BARB		5100
	MAX		MAX_TIMF_OLGA		7800
	MAX		MAX_KAZN_PRTZ		5400
	MAX		MAX_KAZN_SMOL		25800
	MAX		MAX_KAZN_SHKT		26400
	MAX		MAX_KAZN_SERG		7500
	MAX		MAX_KAZN_AVAN		3600
	MAX		MAX_ZNDV_RAZD		15000
	MAX		MAX_ZNDV_BARB		5700
	MAX		MAX_ZNDV_BRGV		6300
	MAX		MAX_GRIG_YARS		6600
	MAX		MAX_GRIG_NVSH		9300
	MAX		MAX_GRIG_LIPV		9600
	MAX		MAX_SHNV_SLAV		10500
	MAX		MAX_SHNV_ZARB		4200
	MAX		MAX_SHNV_ZAYS		8100
	MAX		MAX_RUZH_LSZV		9000
	MAX		MAX_RUZH_KLCH		10800
	MAX		MAX_RUZH_NEVS		8100
	MAX		MAX_RUZH_TURG		3300
	MAX		MAX_HASN_KRAS		14100
	MAX		MAX_BRGV_ZNDV		6300
	MAX		MAX_YASN_KNEV		3000
	MAX		MAX_NEVS_DRCH		8100
	MAX		MAX_NEVS_RUZH		8100
	MAX		MAX_SHDL_KAMN		4050
	MAX		MAX_TURG_RUZH		3300
	MAX		MAX_CHRM_DGRS		14400
	MAX		MAX_ZAYS_KRAS		2100
	MAX		MAX_ZAYS_POSE		3000
	MAX		MAX_ZAYS_SHNV		8100
ENDATA
